p edge 20 56
e 1 3
e 1 5
e 1 9
e 1 11
e 1 12
e 1 14
e 1 15
e 1 18
e 2 3
e 2 7
e 2 10
e 2 11
e 3 8
e 3 9
e 3 11
e 3 12
e 3 13
e 3 18
e 4 7
e 4 9
e 4 17
e 4 18
e 5 6
e 5 15
e 6 7
e 6 10
e 6 11
e 6 12
e 6 16
e 7 9
e 7 15
e 8 10
e 8 16
e 9 10
e 9 12
e 9 17
e 9 20
e 10 12
e 10 15
e 11 12
e 11 15
e 12 13
e 12 14
e 12 17
e 12 18
e 12 19
e 13 14
e 13 17
e 13 18
e 13 20
e 14 15
e 15 16
e 15 17
e 16 20
e 18 19
e 18 20
